c input_v4/product/cnf_ALO_v4/10x10_120.cnf
c p 1560
c cnf 7952
s SATISFIABLE
c process-time: 0.00 seconds
-----
c input_v4/product/cnf_ALO_v4/10x10_121.cnf
c p 1560
c cnf 7768
s SATISFIABLE
c process-time: 0.00 seconds
-----
c input_v4/product/cnf_ALO_v4/10x10_122.cnf
c p 1560
c cnf 7823
s SATISFIABLE
c process-time: 0.00 seconds
-----
c input_v4/product/cnf_ALO_v4/10x10_123.cnf
c p 1646
c cnf 8452
s SATISFIABLE
c process-time: 0.00 seconds
-----
c input_v4/product/cnf_ALO_v4/10x10_124.cnf
c p 1560
c cnf 7786
s SATISFIABLE
c process-time: 0.00 seconds
-----
c input_v4/product/cnf_ALO_v4/10x10_130.cnf
c p 1560
c cnf 7657
s SATISFIABLE
c process-time: 0.00 seconds
-----
c input_v4/product/cnf_ALO_v4/10x10_131.cnf
c p 1304
c cnf 6491
s SATISFIABLE
c process-time: 0.00 seconds
-----
c input_v4/product/cnf_ALO_v4/10x10_132.cnf
c p 1392
c cnf 7121
s SATISFIABLE
c process-time: 0.00 seconds
-----
c input_v4/product/cnf_ALO_v4/10x10_133.cnf
c p 1646
c cnf 8575
s SATISFIABLE
c process-time: 0.00 seconds
-----
c input_v4/product/cnf_ALO_v4/10x10_134.cnf
c p 1304
c cnf 6520
s SATISFIABLE
c process-time: 0.00 seconds
-----
c input_v4/product/cnf_ALO_v4/10x10_135.cnf
c p 1392
c cnf 7088
s SATISFIABLE
c process-time: 0.00 seconds
-----
c input_v4/product/cnf_ALO_v4/10x10_136.cnf
c p 1560
c cnf 7860
s SATISFIABLE
c process-time: 0.00 seconds
-----
c input_v4/product/cnf_ALO_v4/10x10_137.cnf
c p 1560
c cnf 7860
s SATISFIABLE
c process-time: 0.00 seconds
-----
c input_v4/product/cnf_ALO_v4/10x10_138.cnf
c p 1646
c cnf 8493
s SATISFIABLE
c process-time: 0.00 seconds
-----
c input_v4/product/cnf_ALO_v4/10x10_139.cnf
c p 1392
c cnf 7006
s SATISFIABLE
c process-time: 0.00 seconds
-----
c input_v4/product/cnf_ALO_v4/10x10_140.cnf
c p 1646
c cnf 8370
s SATISFIABLE
c process-time: 0.00 seconds
-----
c input_v4/product/cnf_ALO_v4/10x10_141.cnf
c p 1560
c cnf 7933
s SATISFIABLE
c process-time: 0.00 seconds
-----
c input_v4/product/cnf_ALO_v4/10x10_142.cnf
c p 1560
c cnf 7878
s SATISFIABLE
c process-time: 0.00 seconds
-----
c input_v4/product/cnf_ALO_v4/10x10_143.cnf
c p 1392
c cnf 6989
s SATISFIABLE
c process-time: 0.00 seconds
-----
c input_v4/product/cnf_ALO_v4/10x10_144.cnf
c p 1646
c cnf 8207
s SATISFIABLE
c process-time: 0.00 seconds
-----
c input_v4/product/cnf_ALO_v4/10x10_145.cnf
c p 1646
c cnf 8329
s SATISFIABLE
c process-time: 0.00 seconds
-----
c input_v4/product/cnf_ALO_v4/10x15_387.cnf
c p 2410
c cnf 12757
s SATISFIABLE
c process-time: 0.01 seconds
-----
c input_v4/product/cnf_ALO_v4/10x15_388.cnf
c p 2142
c cnf 11661
s SATISFIABLE
c process-time: 0.01 seconds
-----
c input_v4/product/cnf_ALO_v4/10x15_389.cnf
c p 2004
c cnf 10463
s SATISFIABLE
c process-time: 0.01 seconds
-----
c input_v4/product/cnf_ALO_v4/10x15_390.cnf
c p 2410
c cnf 12942
s SATISFIABLE
c process-time: 0.01 seconds
-----
c input_v4/product/cnf_ALO_v4/10x15_396.cnf
c p 2004
c cnf 10478
s SATISFIABLE
c process-time: 0.01 seconds
-----
c input_v4/product/cnf_ALO_v4/10x15_397.cnf
c p 2142
c cnf 11479
s SATISFIABLE
c process-time: 0.01 seconds
-----
c input_v4/product/cnf_ALO_v4/10x15_398.cnf
c p 2004
c cnf 10449
s SATISFIABLE
c process-time: 0.01 seconds
-----
c input_v4/product/cnf_ALO_v4/10x15_399.cnf
c p 2142
c cnf 11495
s SATISFIABLE
c process-time: 0.01 seconds
-----
c input_v4/product/cnf_ALO_v4/10x15_400.cnf
c p 2004
c cnf 10478
s SATISFIABLE
c process-time: 0.02 seconds
-----
c input_v4/product/cnf_ALO_v4/10x18_186.cnf
c p 3572
c cnf 19832
s SATISFIABLE
c process-time: 0.02 seconds
-----
c input_v4/product/cnf_ALO_v4/10x18_187.cnf
c p 2920
c cnf 16020
s SATISFIABLE
c process-time: 0.04 seconds
-----
c input_v4/product/cnf_ALO_v4/10x18_198.cnf
c p 4064
c cnf 23249
s SATISFIABLE
c process-time: 0.01 seconds
-----
c input_v4/product/cnf_ALO_v4/10x18_199.cnf
c p 3572
c cnf 19978
s SATISFIABLE
c process-time: 0.01 seconds
-----
c input_v4/product/cnf_ALO_v4/10x18_200.cnf
c p 3252
c cnf 18278
s SATISFIABLE
c process-time: 0.10 seconds
-----
c input_v4/product/cnf_ALO_v4/10x18_208.cnf
c p 3736
c cnf 21402
s SATISFIABLE
c process-time: 0.01 seconds
-----
c input_v4/product/cnf_ALO_v4/10x18_209.cnf
c p 3252
c cnf 18592
s SATISFIABLE
c process-time: 0.01 seconds
-----
c input_v4/product/cnf_ALO_v4/10x18_414.cnf
c p 4374
c cnf 24576
s SATISFIABLE
c process-time: 0.03 seconds
-----
c input_v4/product/cnf_ALO_v4/10x18_415.cnf
c p 4064
c cnf 23006
s SATISFIABLE
c process-time: 0.01 seconds
-----
c input_v4/product/cnf_ALO_v4/10x18_416.cnf
c p 2920
c cnf 15835
s SATISFIABLE
c process-time: 0.01 seconds
-----
c input_v4/product/cnf_ALO_v4/10x18_417.cnf
c p 3252
c cnf 18234
s SATISFIABLE
c process-time: 0.09 seconds
-----
c input_v4/product/cnf_ALO_v4/11x11_120.cnf
c p 2131
c cnf 11274
s SATISFIABLE
c process-time: 0.00 seconds
-----
c input_v4/product/cnf_ALO_v4/11x11_121.cnf
c p 1707
c cnf 8882
s SATISFIABLE
c process-time: 0.00 seconds
-----
c input_v4/product/cnf_ALO_v4/11x11_122.cnf
c p 1598
c cnf 8204
s SATISFIABLE
c process-time: 0.00 seconds
-----
c input_v4/product/cnf_ALO_v4/11x11_123.cnf
c p 2131
c cnf 11275
s SATISFIABLE
c process-time: 0.00 seconds
-----
c input_v4/product/cnf_ALO_v4/11x11_124.cnf
c p 2131
c cnf 11230
s SATISFIABLE
c process-time: 0.00 seconds
-----
c input_v4/product/cnf_ALO_v4/11x11_130.cnf
c p 1917
c cnf 9936
s SATISFIABLE
c process-time: 0.00 seconds
-----
c input_v4/product/cnf_ALO_v4/11x11_131.cnf
c p 2131
c cnf 11185
s SATISFIABLE
c process-time: 0.00 seconds
-----
c input_v4/product/cnf_ALO_v4/11x11_132.cnf
c p 2024
c cnf 10694
s SATISFIABLE
c process-time: 0.00 seconds
-----
c input_v4/product/cnf_ALO_v4/11x11_133.cnf
c p 1917
c cnf 9955
s SATISFIABLE
c process-time: 0.00 seconds
-----
c input_v4/product/cnf_ALO_v4/11x11_134.cnf
c p 2131
c cnf 11275
s SATISFIABLE
c process-time: 0.00 seconds
-----
c input_v4/product/cnf_ALO_v4/11x11_135.cnf
c p 2131
c cnf 11140
s SATISFIABLE
c process-time: 0.00 seconds
-----
c input_v4/product/cnf_ALO_v4/11x11_136.cnf
c p 1598
c cnf 8132
s SATISFIABLE
c process-time: 0.01 seconds
-----
c input_v4/product/cnf_ALO_v4/11x11_137.cnf
c p 2131
c cnf 11476
s SATISFIABLE
c process-time: 0.00 seconds
-----
c input_v4/product/cnf_ALO_v4/11x11_138.cnf
c p 2131
c cnf 11275
s SATISFIABLE
c process-time: 0.00 seconds
-----
c input_v4/product/cnf_ALO_v4/11x11_139.cnf
c p 1707
c cnf 8882
s SATISFIABLE
c process-time: 0.00 seconds
-----
c input_v4/product/cnf_ALO_v4/11x11_140.cnf
c p 2131
c cnf 11454
s SATISFIABLE
c process-time: 0.01 seconds
-----
c input_v4/product/cnf_ALO_v4/11x11_141.cnf
c p 1707
c cnf 8898
s SATISFIABLE
c process-time: 0.01 seconds
-----
c input_v4/product/cnf_ALO_v4/11x11_142.cnf
c p 1917
c cnf 9881
s SATISFIABLE
c process-time: 0.01 seconds
-----
c input_v4/product/cnf_ALO_v4/11x11_143.cnf
c p 1707
c cnf 8997
s SATISFIABLE
c process-time: 0.00 seconds
-----
c input_v4/product/cnf_ALO_v4/11x11_144.cnf
c p 1917
c cnf 9881
s SATISFIABLE
c process-time: 0.01 seconds
-----
c input_v4/product/cnf_ALO_v4/11x11_145.cnf
c p 1917
c cnf 9973
s SATISFIABLE
c process-time: 0.00 seconds
-----
c input_v4/product/cnf_ALO_v4/12x12_120.cnf
c p 2944
c cnf 16104
s SATISFIABLE
c process-time: 0.01 seconds
-----
c input_v4/product/cnf_ALO_v4/12x12_121.cnf
c p 2308
c cnf 12251
s SATISFIABLE
c process-time: 0.01 seconds
-----
c input_v4/product/cnf_ALO_v4/12x12_122.cnf
c p 2816
c cnf 15369
s SATISFIABLE
c process-time: 0.00 seconds
-----
c input_v4/product/cnf_ALO_v4/12x12_123.cnf
c p 2438
c cnf 13216
s SATISFIABLE
c process-time: 0.00 seconds
-----
c input_v4/product/cnf_ALO_v4/12x12_124.cnf
c p 2816
c cnf 15296
s SATISFIABLE
c process-time: 0.01 seconds
-----
c input_v4/product/cnf_ALO_v4/12x12_130.cnf
c p 2816
c cnf 15295
s SATISFIABLE
c process-time: 0.01 seconds
-----
c input_v4/product/cnf_ALO_v4/12x12_131.cnf
c p 2308
c cnf 12343
s SATISFIABLE
c process-time: 0.01 seconds
-----
c input_v4/product/cnf_ALO_v4/12x12_132.cnf
c p 2816
c cnf 15124
s SATISFIABLE
c process-time: 0.01 seconds
-----
c input_v4/product/cnf_ALO_v4/12x12_133.cnf
c p 2816
c cnf 15002
s SATISFIABLE
c process-time: 0.00 seconds
-----
c input_v4/product/cnf_ALO_v4/12x12_134.cnf
c p 2568
c cnf 14297
s SATISFIABLE
c process-time: 0.01 seconds
-----
c input_v4/product/cnf_ALO_v4/12x12_135.cnf
c p 2438
c cnf 13155
s SATISFIABLE
c process-time: 0.01 seconds
-----
c input_v4/product/cnf_ALO_v4/12x12_136.cnf
c p 2568
c cnf 14072
s SATISFIABLE
c process-time: 0.00 seconds
-----
c input_v4/product/cnf_ALO_v4/12x12_137.cnf
c p 2438
c cnf 13237
s SATISFIABLE
c process-time: 0.01 seconds
-----
c input_v4/product/cnf_ALO_v4/12x12_138.cnf
c p 2438
c cnf 13237
s SATISFIABLE
c process-time: 0.00 seconds
-----
c input_v4/product/cnf_ALO_v4/12x12_139.cnf
c p 2568
c cnf 14050
s SATISFIABLE
c process-time: 0.01 seconds
-----
c input_v4/product/cnf_ALO_v4/12x12_140.cnf
c p 2438
c cnf 13094
s SATISFIABLE
c process-time: 0.00 seconds
-----
c input_v4/product/cnf_ALO_v4/12x12_141.cnf
c p 2438
c cnf 13298
s SATISFIABLE
c process-time: 0.00 seconds
-----
c input_v4/product/cnf_ALO_v4/12x12_142.cnf
c p 2052
c cnf 11002
s SATISFIABLE
c process-time: 0.01 seconds
-----
c input_v4/product/cnf_ALO_v4/12x12_143.cnf
c p 2944
c cnf 15971
s SATISFIABLE
c process-time: 0.01 seconds
-----
c input_v4/product/cnf_ALO_v4/12x12_144.cnf
c p 2308
c cnf 12343
s SATISFIABLE
c process-time: 0.01 seconds
-----
c input_v4/product/cnf_ALO_v4/12x12_145.cnf
c p 2438
c cnf 13176
s SATISFIABLE
c process-time: 0.00 seconds
-----
c input_v4/product/cnf_ALO_v4/12x15_39.cnf
c p 3900
c cnf 22189
s SATISFIABLE
c process-time: 0.01 seconds
-----
c input_v4/product/cnf_ALO_v4/12x15_43.cnf
c p 3572
c cnf 20009
s SATISFIABLE
c process-time: 0.01 seconds
-----
c input_v4/product/cnf_ALO_v4/12x15_45.cnf
c p 2920
c cnf 15915
s SATISFIABLE
c process-time: 0.01 seconds
-----
c input_v4/product/cnf_ALO_v4/12x15_46.cnf
c p 3086
c cnf 17170
s SATISFIABLE
c process-time: 0.01 seconds
-----
c input_v4/product/cnf_ALO_v4/12x23_210.cnf
c p 8904
c cnf 54793
s SATISFIABLE
c process-time: 0.09 seconds
-----
c input_v4/product/cnf_ALO_v4/13x13_120.cnf
c p 3341
c cnf 18736
s SATISFIABLE
c process-time: 0.01 seconds
-----
c input_v4/product/cnf_ALO_v4/13x13_121.cnf
c p 3043
c cnf 17018
s SATISFIABLE
c process-time: 0.01 seconds
-----
c input_v4/product/cnf_ALO_v4/13x13_122.cnf
c p 2733
c cnf 14878
s SATISFIABLE
c process-time: 0.01 seconds
-----
c input_v4/product/cnf_ALO_v4/13x13_123.cnf
c p 3494
c cnf 19599
s SATISFIABLE
c process-time: 0.01 seconds
-----
c input_v4/product/cnf_ALO_v4/13x13_124.cnf
c p 3341
c cnf 18589
s SATISFIABLE
c process-time: 0.01 seconds
-----
c input_v4/product/cnf_ALO_v4/13x13_130.cnf
c p 3341
c cnf 18662
s SATISFIABLE
c process-time: 0.02 seconds
-----
c input_v4/product/cnf_ALO_v4/13x13_131.cnf
c p 3043
c cnf 17198
s SATISFIABLE
c process-time: 0.02 seconds
-----
c input_v4/product/cnf_ALO_v4/13x13_132.cnf
c p 3494
c cnf 19573
s SATISFIABLE
c process-time: 0.01 seconds
-----
c input_v4/product/cnf_ALO_v4/13x13_133.cnf
c p 3043
c cnf 17108
s SATISFIABLE
c process-time: 0.01 seconds
-----
c input_v4/product/cnf_ALO_v4/13x13_134.cnf
c p 2888
c cnf 15959
s SATISFIABLE
c process-time: 0.01 seconds
-----
c input_v4/product/cnf_ALO_v4/13x13_135.cnf
c p 3043
c cnf 16996
s SATISFIABLE
c process-time: 0.01 seconds
-----
c input_v4/product/cnf_ALO_v4/13x13_136.cnf
c p 3341
c cnf 18516
s SATISFIABLE
c process-time: 0.01 seconds
-----
c input_v4/product/cnf_ALO_v4/13x13_137.cnf
c p 3341
c cnf 18516
s SATISFIABLE
c process-time: 0.01 seconds
-----
c input_v4/product/cnf_ALO_v4/13x13_138.cnf
c p 3494
c cnf 19520
s SATISFIABLE
c process-time: 0.01 seconds
-----
c input_v4/product/cnf_ALO_v4/13x13_139.cnf
c p 3647
c cnf 20573
s SATISFIABLE
c process-time: 0.01 seconds
-----
c input_v4/product/cnf_ALO_v4/13x13_140.cnf
c p 3043
c cnf 17445
s SATISFIABLE
c process-time: 0.01 seconds
-----
c input_v4/product/cnf_ALO_v4/13x13_141.cnf
c p 2888
c cnf 16164
s SATISFIABLE
c process-time: 0.01 seconds
-----
c input_v4/product/cnf_ALO_v4/13x13_142.cnf
c p 2888
c cnf 15877
s SATISFIABLE
c process-time: 0.08 seconds
-----
c input_v4/product/cnf_ALO_v4/13x13_143.cnf
c p 2888
c cnf 15959
s SATISFIABLE
c process-time: 0.03 seconds
-----
c input_v4/product/cnf_ALO_v4/13x13_144.cnf
c p 3647
c cnf 20744
s SATISFIABLE
c process-time: 0.01 seconds
-----
c input_v4/product/cnf_ALO_v4/13x13_145.cnf
c p 3494
c cnf 19626
s SATISFIABLE
c process-time: 0.01 seconds
-----
c input_v4/product/cnf_ALO_v4/14x14_120.cnf
c p 4088
c cnf 23480
s SATISFIABLE
c process-time: 0.01 seconds
-----
c input_v4/product/cnf_ALO_v4/14x14_121.cnf
c p 4268
c cnf 24905
s SATISFIABLE
c process-time: 0.02 seconds
-----
c input_v4/product/cnf_ALO_v4/14x14_122.cnf
c p 4268
c cnf 24876
s SATISFIABLE
c process-time: 0.02 seconds
-----
c input_v4/product/cnf_ALO_v4/14x14_123.cnf
c p 3908
c cnf 22169
s SATISFIABLE
c process-time: 0.03 seconds
-----
c input_v4/product/cnf_ALO_v4/14x14_124.cnf
c p 4088
c cnf 23453
s SATISFIABLE
c process-time: 0.01 seconds
-----
c input_v4/product/cnf_ALO_v4/14x14_130.cnf
c p 3908
c cnf 22437
s SATISFIABLE
c process-time: 0.01 seconds
-----
c input_v4/product/cnf_ALO_v4/14x14_131.cnf
c p 4268
c cnf 24905
s SATISFIABLE
c process-time: 0.02 seconds
-----
c input_v4/product/cnf_ALO_v4/14x14_132.cnf
c p 4448
c cnf 26170
s SATISFIABLE
c process-time: 0.01 seconds
-----
c input_v4/product/cnf_ALO_v4/14x14_133.cnf
c p 4448
c cnf 25865
s SATISFIABLE
c process-time: 0.02 seconds
-----
c input_v4/product/cnf_ALO_v4/14x14_134.cnf
c p 4268
c cnf 24819
s SATISFIABLE
c process-time: 0.03 seconds
-----
c input_v4/product/cnf_ALO_v4/14x14_135.cnf
c p 3556
c cnf 20583
s SATISFIABLE
c process-time: 0.01 seconds
-----
c input_v4/product/cnf_ALO_v4/14x14_136.cnf
c p 3556
c cnf 20538
s SATISFIABLE
c process-time: 0.02 seconds
-----
c input_v4/product/cnf_ALO_v4/14x14_137.cnf
c p 4268
c cnf 24734
s SATISFIABLE
c process-time: 0.01 seconds
-----
c input_v4/product/cnf_ALO_v4/14x14_138.cnf
c p 4268
c cnf 25104
s SATISFIABLE
c process-time: 0.02 seconds
-----
c input_v4/product/cnf_ALO_v4/14x14_139.cnf
c p 4088
c cnf 23744
s SATISFIABLE
c process-time: 0.01 seconds
-----
c input_v4/product/cnf_ALO_v4/14x14_140.cnf
c p 4448
c cnf 26139
s SATISFIABLE
c process-time: 0.02 seconds
-----
c input_v4/product/cnf_ALO_v4/14x14_141.cnf
c p 4448
c cnf 25835
s SATISFIABLE
c process-time: 0.03 seconds
-----
c input_v4/product/cnf_ALO_v4/14x14_142.cnf
c p 4268
c cnf 24962
s SATISFIABLE
c process-time: 0.01 seconds
-----
c input_v4/product/cnf_ALO_v4/14x14_143.cnf
c p 4268
c cnf 24649
s SATISFIABLE
c process-time: 0.03 seconds
-----
c input_v4/product/cnf_ALO_v4/14x14_144.cnf
c p 3556
c cnf 20538
s SATISFIABLE
c process-time: 0.02 seconds
-----
c input_v4/product/cnf_ALO_v4/14x14_145.cnf
c p 4448
c cnf 26108
s SATISFIABLE
c process-time: 0.03 seconds
-----
c input_v4/product/cnf_ALO_v4/14x24_105.cnf
c p 10312
c cnf 65348
s SATISFIABLE
c process-time: 0.27 seconds
-----
c input_v4/product/cnf_ALO_v4/14x24_110.cnf
c p 9384
c cnf 59546
s SATISFIABLE
c process-time: 1s 0.65 seconds
-----
c input_v4/product/cnf_ALO_v4/14x24_113.cnf
c p 10944
c cnf 69877
s SATISFIABLE
c process-time: 0.31 seconds
-----
c input_v4/product/cnf_ALO_v4/14x24_117.cnf
c p 9066
c cnf 57269
s SATISFIABLE
c process-time: 1s 0.71 seconds
-----
c input_v4/product/cnf_ALO_v4/14x24_129.cnf
c p 9384
c cnf 59661
s SATISFIABLE
c process-time: 0.19 seconds
-----
c input_v4/product/cnf_ALO_v4/14x24_139.cnf
c p 9384
c cnf 59777
s SATISFIABLE
c process-time: 0.42 seconds
-----
c input_v4/product/cnf_ALO_v4/14x24_147.cnf
c p 9996
c cnf 62874
s SATISFIABLE
c process-time: 1s 1.05 seconds
-----
c input_v4/product/cnf_ALO_v4/14x24_148.cnf
c p 7488
c cnf 46411
s SATISFIABLE
c process-time: 0.15 seconds
-----
c input_v4/product/cnf_ALO_v4/14x24_157.cnf
c p 7808
c cnf 49018
s SATISFIABLE
c process-time: 0.03 seconds
-----
c input_v4/product/cnf_ALO_v4/14x24_158.cnf
c p 6848
c cnf 41002
s SATISFIABLE
c process-time: 4s 3.60 seconds
-----
c input_v4/product/cnf_ALO_v4/14x24_169.cnf
c p 7488
c cnf 46269
s SATISFIABLE
c process-time: 1s 0.83 seconds
-----
c input_v4/product/cnf_ALO_v4/14x24_179.cnf
c p 6848
c cnf 41124
s SATISFIABLE
c process-time: 2s 2.26 seconds
-----
c input_v4/product/cnf_ALO_v4/14x24_188.cnf
c p 10312
c cnf 65730
s SATISFIABLE
c process-time: 0.23 seconds
-----
c input_v4/product/cnf_ALO_v4/14x24_189.cnf
c p 11860
c cnf 75244
s SATISFIABLE
c process-time: 0.32 seconds
-----
c input_v4/product/cnf_ALO_v4/14x24_190.cnf
c p 6848
c cnf 41051
s SATISFIABLE
c process-time: 8s 7.79 seconds
-----
c input_v4/product/cnf_ALO_v4/14x24_199.cnf
c p 6216
c cnf 37509
s SATISFIABLE
c process-time: 1s 1.31 seconds
-----
c input_v4/product/cnf_ALO_v4/14x24_200.cnf
c p 7168
c cnf 43674
s SATISFIABLE
c process-time: 2s 2.23 seconds
-----
c input_v4/product/cnf_ALO_v4/14x24_208.cnf
c p 9384
c cnf 59623
s SATISFIABLE
c process-time: 0.20 seconds
-----
c input_v4/product/cnf_ALO_v4/14x24_209.cnf
c p 7168
c cnf 43727
s SATISFIABLE
c process-time: 0.47 seconds
-----
c input_v4/product/cnf_ALO_v4/14x24_218.cnf
c p 9384
c cnf 59892
s SATISFIABLE
c process-time: 1s 0.51 seconds
-----
c input_v4/product/cnf_ALO_v4/14x24_219.cnf
c p 7488
c cnf 46240
s SATISFIABLE
c process-time: 1s 1.20 seconds
-----
c input_v4/product/cnf_ALO_v4/14x24_418.cnf
c p 8748
c cnf 55257
s SATISFIABLE
c process-time: 0.05 seconds
-----
c input_v4/product/cnf_ALO_v4/14x24_419.cnf
c p 10944
c cnf 69552
s SATISFIABLE
c process-time: 0.21 seconds
-----
c input_v4/product/cnf_ALO_v4/14x24_420.cnf
c p 7168
c cnf 43700
s SATISFIABLE
c process-time: 2s 2.41 seconds
-----
c input_v4/product/cnf_ALO_v4/15x15_120.cnf
c p 5144
c cnf 30992
s SATISFIABLE
c process-time: 0.07 seconds
-----
c input_v4/product/cnf_ALO_v4/15x15_121.cnf
c p 4517
c cnf 26181
s SATISFIABLE
c process-time: 0.01 seconds
-----
c input_v4/product/cnf_ALO_v4/15x15_122.cnf
c p 4935
c cnf 29250
s SATISFIABLE
c process-time: 0.01 seconds
-----
c input_v4/product/cnf_ALO_v4/15x15_123.cnf
c p 5144
c cnf 30748
s SATISFIABLE
c process-time: 0.06 seconds
-----
c input_v4/product/cnf_ALO_v4/15x15_124.cnf
c p 5144
c cnf 30718
s SATISFIABLE
c process-time: 0.05 seconds
-----
c input_v4/product/cnf_ALO_v4/15x15_130.cnf
c p 4935
c cnf 29278
s SATISFIABLE
c process-time: 0.01 seconds
-----
c input_v4/product/cnf_ALO_v4/15x15_131.cnf
c p 5144
c cnf 30626
s SATISFIABLE
c process-time: 0.02 seconds
-----
c input_v4/product/cnf_ALO_v4/15x15_132.cnf
c p 5144
c cnf 30748
s SATISFIABLE
c process-time: 0.02 seconds
-----
c input_v4/product/cnf_ALO_v4/15x15_133.cnf
c p 5144
c cnf 30596
s SATISFIABLE
c process-time: 0.15 seconds
-----
c input_v4/product/cnf_ALO_v4/15x15_134.cnf
c p 4726
c cnf 27746
s SATISFIABLE
c process-time: 0.13 seconds
-----
c input_v4/product/cnf_ALO_v4/15x15_135.cnf
c p 5144
c cnf 30748
s SATISFIABLE
c process-time: 0.01 seconds
-----
c input_v4/product/cnf_ALO_v4/15x15_136.cnf
c p 5144
c cnf 30900
s SATISFIABLE
c process-time: 0.02 seconds
-----
c input_v4/product/cnf_ALO_v4/15x15_137.cnf
c p 5144
c cnf 30961
s SATISFIABLE
c process-time: 0.09 seconds
-----
c input_v4/product/cnf_ALO_v4/15x15_138.cnf
c p 5144
c cnf 30748
s SATISFIABLE
c process-time: 0.02 seconds
-----
c input_v4/product/cnf_ALO_v4/15x15_139.cnf
c p 4935
c cnf 29193
s SATISFIABLE
c process-time: 0.19 seconds
-----
c input_v4/product/cnf_ALO_v4/15x15_140.cnf
c p 5144
c cnf 30809
s SATISFIABLE
c process-time: 0.02 seconds
-----
c input_v4/product/cnf_ALO_v4/15x15_141.cnf
c p 5144
c cnf 30809
s SATISFIABLE
c process-time: 0.02 seconds
-----
c input_v4/product/cnf_ALO_v4/15x15_142.cnf
c p 5144
c cnf 30657
s SATISFIABLE
c process-time: 0.01 seconds
-----
c input_v4/product/cnf_ALO_v4/15x15_143.cnf
c p 5144
c cnf 31083
s SATISFIABLE
c process-time: 0.07 seconds
-----
c input_v4/product/cnf_ALO_v4/15x15_144.cnf
c p 5144
c cnf 30901
s SATISFIABLE
c process-time: 0.03 seconds
-----
c input_v4/product/cnf_ALO_v4/15x15_145.cnf
c p 4935
c cnf 29420
s SATISFIABLE
c process-time: 0.01 seconds
-----
c input_v4/product/cnf_ALO_v4/15x20_307.cnf
c p 5246
c cnf 30866
s SATISFIABLE
c process-time: 9s 8.55 seconds
-----
c input_v4/product/cnf_ALO_v4/15x20_308.cnf
c p 5532
c cnf 33207
s SATISFIABLE
c process-time: 0.25 seconds
-----
c input_v4/product/cnf_ALO_v4/15x20_309.cnf
c p 5246
c cnf 31030
s SATISFIABLE
c process-time: 2s 2.38 seconds
-----
c input_v4/product/cnf_ALO_v4/15x20_310.cnf
c p 6660
c cnf 40761
s SATISFIABLE
c process-time: 0.36 seconds
-----
c input_v4/product/cnf_ALO_v4/15x20_317.cnf
c p 6660
c cnf 40590
s SATISFIABLE
c process-time: 0.03 seconds
-----
c input_v4/product/cnf_ALO_v4/15x20_318.cnf
c p 6660
c cnf 40647
s SATISFIABLE
c process-time: 1s 0.55 seconds
-----
c input_v4/product/cnf_ALO_v4/15x20_319.cnf
c p 6376
c cnf 38396
s SATISFIABLE
c process-time: 1s 1.20 seconds
-----
c input_v4/product/cnf_ALO_v4/15x20_320.cnf
c p 6376
c cnf 38475
s SATISFIABLE
c process-time: 1s 0.61 seconds
-----
c input_v4/product/cnf_ALO_v4/17x17_100.cnf
c p 5323
c cnf 31873
s SATISFIABLE
c process-time: 0.26 seconds
-----
c input_v4/product/cnf_ALO_v4/17x17_104.cnf
c p 8021
c cnf 50372
s SATISFIABLE
c process-time: 0.29 seconds
-----
c input_v4/product/cnf_ALO_v4/17x17_109.cnf
c p 7750
c cnf 48184
s SATISFIABLE
c process-time: 3s 2.65 seconds
-----
c input_v4/product/cnf_ALO_v4/17x17_112.cnf
c p 8539
c cnf 52932
s SATISFIABLE
c process-time: 0.07 seconds
-----
c input_v4/product/cnf_ALO_v4/17x17_116.cnf
c p 7479
c cnf 46161
s SATISFIABLE
c process-time: 0.09 seconds
-----
c input_v4/product/cnf_ALO_v4/17x17_120.cnf
c p 5861
c cnf 34746
s SATISFIABLE
c process-time: 1s 1.18 seconds
-----
c input_v4/product/cnf_ALO_v4/17x17_128.cnf
c p 5861
c cnf 35040
s SATISFIABLE
c process-time: 0.31 seconds
-----
c input_v4/product/cnf_ALO_v4/17x17_136.cnf
c p 7750
c cnf 48475
s SATISFIABLE
c process-time: 0.06 seconds
-----
c input_v4/product/cnf_ALO_v4/17x17_138.cnf
c p 5323
c cnf 31783
s SATISFIABLE
c process-time: 2s 1.80 seconds
-----
c input_v4/product/cnf_ALO_v4/17x17_165.cnf
c p 5861
c cnf 34746
s SATISFIABLE
c process-time: 1s 0.57 seconds
-----
c input_v4/product/cnf_ALO_v4/17x17_166.cnf
c p 5323
c cnf 31783
s SATISFIABLE
c process-time: 4s 3.84 seconds
-----
c input_v4/product/cnf_ALO_v4/17x17_167.cnf
c p 10388
c cnf 65579
s SATISFIABLE
c process-time: 0.05 seconds
-----
c input_v4/product/cnf_ALO_v4/17x17_168.cnf
c p 10922
c cnf 68388
s SATISFIABLE
c process-time: 0.03 seconds
-----
c input_v4/product/cnf_ALO_v4/17x17_175.cnf
c p 4773
c cnf 27456
s SATISFIABLE
c process-time: 26s 26.40 seconds
-----
c input_v4/product/cnf_ALO_v4/17x17_176.cnf
c p 4227
c cnf 24331
s SATISFIABLE
c process-time: 1s 1.47 seconds
-----
c input_v4/product/cnf_ALO_v4/17x17_177.cnf
c p 8808
c cnf 55235
s SATISFIABLE
c process-time: 0.26 seconds
-----
c input_v4/product/cnf_ALO_v4/17x17_178.cnf
c p 9615
c cnf 61077
s SATISFIABLE
c process-time: 0.03 seconds
-----
c input_v4/product/cnf_ALO_v4/17x17_187.cnf
c p 5048
c cnf 29675
s SATISFIABLE
c process-time: 0.22 seconds
-----
c input_v4/product/cnf_ALO_v4/17x17_188.cnf
c p 5323
c cnf 31828
s SATISFIABLE
c process-time: 0.24 seconds
-----
c input_v4/product/cnf_ALO_v4/17x17_197.cnf
c p 5323
c cnf 31873
s SATISFIABLE
c process-time: 1s 1.21 seconds
-----
c input_v4/product/cnf_ALO_v4/17x17_198.cnf
c p 4773
c cnf 27290
s SATISFIABLE
c process-time: 3s 3.14 seconds
-----
c input_v4/product/cnf_ALO_v4/17x17_230.cnf
c p 3673
c cnf 19585
s SATISFIABLE
c process-time: 3s 2.79 seconds
-----
c input_v4/product/cnf_ALO_v4/17x17_240.cnf
c p 4773
c cnf 27382
s SATISFIABLE
c process-time: 1s 1.31 seconds
-----
c input_v4/product/cnf_ALO_v4/17x17_250.cnf
c p 12213
c cnf 75140
s SATISFIABLE
c process-time: 0.07 seconds
-----
c input_v4/product/cnf_ALO_v4/17x17_260.cnf
c p 12213
c cnf 76172
s SATISFIABLE
c process-time: 0.05 seconds
-----
c input_v4/product/cnf_ALO_v4/17x17_270.cnf
c p 10922
c cnf 68614
s SATISFIABLE
c process-time: 0.14 seconds
-----
c input_v4/product/cnf_ALO_v4/17x17_429.cnf
c p 7750
c cnf 48293
s SATISFIABLE
c process-time: 0.01 seconds
-----
c input_v4/product/cnf_ALO_v4/17x17_439.cnf
c p 5323
c cnf 31918
s SATISFIABLE
c process-time: 1s 1.16 seconds
-----
c input_v4/product/cnf_ALO_v4/17x17_449.cnf
c p 7208
c cnf 44401
s SATISFIABLE
c process-time: 0.17 seconds
-----
c input_v4/product/cnf_ALO_v4/20x20_430.cnf
c p 14228
c cnf 93938
s SATISFIABLE
c process-time: 1s 0.79 seconds
-----
c input_v4/product/cnf_ALO_v4/20x20_440.cnf
c p 8192
c cnf 49946
s SATISFIABLE
c process-time: 17s 16.80 seconds
-----
c input_v4/product/cnf_ALO_v4/20x20_450.cnf
c p 9344
c cnf 59408
s SATISFIABLE
c process-time: 16s 15.66 seconds
-----
c input_v4/product/cnf_ALO_v4/20x36_106.cnf
c p 35038
c cnf 250840
s SATISFIABLE
c process-time: 13s 12.62 seconds
-----
c input_v4/product/cnf_ALO_v4/20x36_114.cnf
c p 35038
c cnf 251203
s SATISFIABLE
c process-time: 5s 4.80 seconds
-----
c input_v4/product/cnf_ALO_v4/20x36_118.cnf
c p 30216
c cnf 213759
s SATISFIABLE
c process-time: 7m 48s 468.39 seconds
-----
c input_v4/product/cnf_ALO_v4/20x36_130.cnf
c p 30216
c cnf 213820
s SATISFIABLE
c process-time: 16s 15.69 seconds
-----
c input_v4/product/cnf_ALO_v4/20x36_140.cnf
c p 30216
c cnf 213880
s SATISFIABLE
c process-time: 2m 119.63 seconds
-----
c input_v4/product/cnf_ALO_v4/20x36_149.cnf
c p 27464
c cnf 192933
s SATISFIABLE
c process-time: 58s 57.65 seconds
-----
c input_v4/product/cnf_ALO_v4/20x36_150.cnf
c p 22600
c cnf 154597
c process-time: 15m 899.73 seconds
UNKNOWN
-----
c input_v4/product/cnf_ALO_v4/20x36_159.cnf
c p 30216
c cnf 214001
s SATISFIABLE
c process-time: 4m 50s 290.24 seconds
-----
c input_v4/product/cnf_ALO_v4/20x36_160.cnf
c p 22600
c cnf 154597
c process-time: 15m 899.91 seconds
UNKNOWN
-----
c input_v4/product/cnf_ALO_v4/20x36_170.cnf
c p 31608
c cnf 225181
s SATISFIABLE
c process-time: 1m 59s 118.59 seconds
-----
c input_v4/product/cnf_ALO_v4/20x36_180.cnf
c p 22600
c cnf 154682
s SATISFIABLE
c process-time: 1m 8s 67.87 seconds
-----
c input_v4/product/cnf_ALO_v4/20x36_210.cnf
c p 31608
c cnf 225181
s SATISFIABLE
c process-time: 1m 59s 118.50 seconds
-----
c input_v4/product/cnf_ALO_v4/20x36_220.cnf
c p 35038
c cnf 250188
s SATISFIABLE
c process-time: 9s 8.94 seconds
-----
c input_v4/product/cnf_ALO_v4/25x25_60.cnf
c p 21375
c cnf 147722
c process-time: 15m 899.75 seconds
UNKNOWN
-----
c input_v4/product/cnf_ALO_v4/25x25_66.cnf
c p 24965
c cnf 175001
s SATISFIABLE
c process-time: 15s 15.17 seconds
-----
c input_v4/product/cnf_ALO_v4/25x25_72.cnf
c p 31486
c cnf 222481
s SATISFIABLE
c process-time: 4s 4.40 seconds
-----
c input_v4/product/cnf_ALO_v4/25x25_78.cnf
c p 26131
c cnf 182489
s SATISFIABLE
c process-time: 25s 25.44 seconds
-----
c input_v4/product/cnf_ALO_v4/25x42_110.cnf
c p 79916
c cnf 603456
s SATISFIABLE
c process-time: 29s 28.53 seconds
-----
c input_v4/product/cnf_ALO_v4/35x48_190.cnf
c p 88000
c cnf 677348
c process-time: 15m 900.04 seconds
UNKNOWN
-----
c input_v4/product/cnf_ALO_v4/6x6_120.cnf
c p 256
c cnf 998
s SATISFIABLE
c process-time: 0.00 seconds
-----
c input_v4/product/cnf_ALO_v4/6x6_121.cnf
c p 336
c cnf 1334
s SATISFIABLE
c process-time: 0.00 seconds
-----
c input_v4/product/cnf_ALO_v4/6x6_122.cnf
c p 310
c cnf 1186
s SATISFIABLE
c process-time: 0.00 seconds
-----
c input_v4/product/cnf_ALO_v4/6x6_123.cnf
c p 310
c cnf 1253
s SATISFIABLE
c process-time: 0.00 seconds
-----
c input_v4/product/cnf_ALO_v4/6x6_124.cnf
c p 310
c cnf 1177
s SATISFIABLE
c process-time: 0.00 seconds
-----
c input_v4/product/cnf_ALO_v4/6x6_125.cnf
c p 310
c cnf 1203
s SATISFIABLE
c process-time: 0.00 seconds
-----
c input_v4/product/cnf_ALO_v4/6x6_130.cnf
c p 256
c cnf 998
s SATISFIABLE
c process-time: 0.00 seconds
-----
c input_v4/product/cnf_ALO_v4/6x6_131.cnf
c p 336
c cnf 1324
s SATISFIABLE
c process-time: 0.00 seconds
-----
c input_v4/product/cnf_ALO_v4/6x6_132.cnf
c p 256
c cnf 985
s SATISFIABLE
c process-time: 0.00 seconds
-----
c input_v4/product/cnf_ALO_v4/6x6_133.cnf
c p 336
c cnf 1293
s SATISFIABLE
c process-time: 0.00 seconds
-----
c input_v4/product/cnf_ALO_v4/6x6_134.cnf
c p 336
c cnf 1314
s SATISFIABLE
c process-time: 0.00 seconds
-----
c input_v4/product/cnf_ALO_v4/6x6_135.cnf
c p 256
c cnf 985
s SATISFIABLE
c process-time: 0.00 seconds
-----
c input_v4/product/cnf_ALO_v4/6x6_136.cnf
c p 256
c cnf 1023
s SATISFIABLE
c process-time: 0.00 seconds
-----
c input_v4/product/cnf_ALO_v4/6x6_137.cnf
c p 310
c cnf 1244
s SATISFIABLE
c process-time: 0.00 seconds
-----
c input_v4/product/cnf_ALO_v4/6x6_138.cnf
c p 310
c cnf 1228
s SATISFIABLE
c process-time: 0.00 seconds
-----
c input_v4/product/cnf_ALO_v4/6x6_139.cnf
c p 310
c cnf 1186
s SATISFIABLE
c process-time: 0.00 seconds
-----
c input_v4/product/cnf_ALO_v4/6x6_140.cnf
c p 384
c cnf 1436
s SATISFIABLE
c process-time: 0.00 seconds
-----
c input_v4/product/cnf_ALO_v4/6x6_141.cnf
c p 256
c cnf 985
s SATISFIABLE
c process-time: 0.00 seconds
-----
c input_v4/product/cnf_ALO_v4/6x6_142.cnf
c p 310
c cnf 1194
s SATISFIABLE
c process-time: 0.00 seconds
-----
c input_v4/product/cnf_ALO_v4/6x6_143.cnf
c p 336
c cnf 1344
s SATISFIABLE
c process-time: 0.00 seconds
-----
c input_v4/product/cnf_ALO_v4/6x6_144.cnf
c p 336
c cnf 1356
s SATISFIABLE
c process-time: 0.00 seconds
-----
c input_v4/product/cnf_ALO_v4/6x6_145.cnf
c p 310
c cnf 1203
s SATISFIABLE
c process-time: 0.00 seconds
-----
c input_v4/product/cnf_ALO_v4/7x7_120.cnf
c p 479
c cnf 1958
s SATISFIABLE
c process-time: 0.00 seconds
-----
c input_v4/product/cnf_ALO_v4/7x7_121.cnf
c p 553
c cnf 2362
s SATISFIABLE
c process-time: 0.00 seconds
-----
c input_v4/product/cnf_ALO_v4/7x7_122.cnf
c p 553
c cnf 2399
s SATISFIABLE
c process-time: 0.00 seconds
-----
c input_v4/product/cnf_ALO_v4/7x7_123.cnf
c p 440
c cnf 1762
s SATISFIABLE
c process-time: 0.00 seconds
-----
c input_v4/product/cnf_ALO_v4/7x7_124.cnf
c p 479
c cnf 2031
s SATISFIABLE
c process-time: 0.00 seconds
-----
c input_v4/product/cnf_ALO_v4/7x7_130.cnf
c p 360
c cnf 1518
s SATISFIABLE
c process-time: 0.00 seconds
-----
c input_v4/product/cnf_ALO_v4/7x7_131.cnf
c p 479
c cnf 2083
s SATISFIABLE
c process-time: 0.00 seconds
-----
c input_v4/product/cnf_ALO_v4/7x7_132.cnf
c p 590
c cnf 2524
s SATISFIABLE
c process-time: 0.00 seconds
-----
c input_v4/product/cnf_ALO_v4/7x7_133.cnf
c p 479
c cnf 2114
s SATISFIABLE
c process-time: 0.00 seconds
-----
c input_v4/product/cnf_ALO_v4/7x7_134.cnf
c p 440
c cnf 1804
s SATISFIABLE
c process-time: 0.00 seconds
-----
c input_v4/product/cnf_ALO_v4/7x7_135.cnf
c p 553
c cnf 2436
s SATISFIABLE
c process-time: 0.00 seconds
-----
c input_v4/product/cnf_ALO_v4/7x7_136.cnf
c p 440
c cnf 1796
s SATISFIABLE
c process-time: 0.00 seconds
-----
c input_v4/product/cnf_ALO_v4/7x7_137.cnf
c p 440
c cnf 1821
s SATISFIABLE
c process-time: 0.00 seconds
-----
c input_v4/product/cnf_ALO_v4/7x7_138.cnf
c p 479
c cnf 2052
s SATISFIABLE
c process-time: 0.00 seconds
-----
c input_v4/product/cnf_ALO_v4/7x7_139.cnf
c p 479
c cnf 2083
s SATISFIABLE
c process-time: 0.00 seconds
-----
c input_v4/product/cnf_ALO_v4/7x7_140.cnf
c p 479
c cnf 2021
s SATISFIABLE
c process-time: 0.00 seconds
-----
c input_v4/product/cnf_ALO_v4/7x7_141.cnf
c p 479
c cnf 2031
s SATISFIABLE
c process-time: 0.00 seconds
-----
c input_v4/product/cnf_ALO_v4/7x7_142.cnf
c p 479
c cnf 2052
s SATISFIABLE
c process-time: 0.00 seconds
-----
c input_v4/product/cnf_ALO_v4/7x7_143.cnf
c p 553
c cnf 2437
s SATISFIABLE
c process-time: 0.00 seconds
-----
c input_v4/product/cnf_ALO_v4/7x7_144.cnf
c p 479
c cnf 2052
s SATISFIABLE
c process-time: 0.00 seconds
-----
c input_v4/product/cnf_ALO_v4/7x7_145.cnf
c p 479
c cnf 2020
s SATISFIABLE
c process-time: 0.00 seconds
-----
c input_v4/product/cnf_ALO_v4/8x8_120.cnf
c p 800
c cnf 3600
s SATISFIABLE
c process-time: 0.00 seconds
-----
c input_v4/product/cnf_ALO_v4/8x8_121.cnf
c p 800
c cnf 3601
s SATISFIABLE
c process-time: 0.00 seconds
-----
c input_v4/product/cnf_ALO_v4/8x8_122.cnf
c p 800
c cnf 3716
s SATISFIABLE
c process-time: 0.00 seconds
-----
c input_v4/product/cnf_ALO_v4/8x8_123.cnf
c p 800
c cnf 3557
s SATISFIABLE
c process-time: 0.00 seconds
-----
c input_v4/product/cnf_ALO_v4/8x8_124.cnf
c p 644
c cnf 3004
s SATISFIABLE
c process-time: 0.00 seconds
-----
c input_v4/product/cnf_ALO_v4/8x8_130.cnf
c p 644
c cnf 2889
s SATISFIABLE
c process-time: 0.00 seconds
-----
c input_v4/product/cnf_ALO_v4/8x8_131.cnf
c p 800
c cnf 3600
s SATISFIABLE
c process-time: 0.00 seconds
-----
c input_v4/product/cnf_ALO_v4/8x8_132.cnf
c p 748
c cnf 3268
s SATISFIABLE
c process-time: 0.00 seconds
-----
c input_v4/product/cnf_ALO_v4/8x8_133.cnf
c p 644
c cnf 2931
s SATISFIABLE
c process-time: 0.00 seconds
-----
c input_v4/product/cnf_ALO_v4/8x8_134.cnf
c p 800
c cnf 3528
s SATISFIABLE
c process-time: 0.00 seconds
-----
c input_v4/product/cnf_ALO_v4/8x8_135.cnf
c p 644
c cnf 2879
s SATISFIABLE
c process-time: 0.00 seconds
-----
c input_v4/product/cnf_ALO_v4/8x8_136.cnf
c p 748
c cnf 3293
s SATISFIABLE
c process-time: 0.00 seconds
-----
c input_v4/product/cnf_ALO_v4/8x8_137.cnf
c p 800
c cnf 3600
s SATISFIABLE
c process-time: 0.00 seconds
-----
c input_v4/product/cnf_ALO_v4/8x8_138.cnf
c p 590
c cnf 2566
s SATISFIABLE
c process-time: 0.00 seconds
-----
c input_v4/product/cnf_ALO_v4/8x8_139.cnf
c p 800
c cnf 3557
s SATISFIABLE
c process-time: 0.00 seconds
-----
c input_v4/product/cnf_ALO_v4/8x8_140.cnf
c p 748
c cnf 3368
s SATISFIABLE
c process-time: 0.00 seconds
-----
c input_v4/product/cnf_ALO_v4/8x8_141.cnf
c p 800
c cnf 3701
s SATISFIABLE
c process-time: 0.00 seconds
-----
c input_v4/product/cnf_ALO_v4/8x8_142.cnf
c p 748
c cnf 3330
s SATISFIABLE
c process-time: 0.00 seconds
-----
c input_v4/product/cnf_ALO_v4/8x8_143.cnf
c p 852
c cnf 3966
s SATISFIABLE
c process-time: 0.00 seconds
-----
c input_v4/product/cnf_ALO_v4/8x8_144.cnf
c p 748
c cnf 3380
s SATISFIABLE
c process-time: 0.00 seconds
-----
c input_v4/product/cnf_ALO_v4/8x8_145.cnf
c p 800
c cnf 3687
s SATISFIABLE
c process-time: 0.00 seconds
-----
c input_v4/product/cnf_ALO_v4/9x9_120.cnf
c p 969
c cnf 4515
s SATISFIABLE
c process-time: 0.00 seconds
-----
c input_v4/product/cnf_ALO_v4/9x9_121.cnf
c p 1107
c cnf 5372
s SATISFIABLE
c process-time: 0.00 seconds
-----
c input_v4/product/cnf_ALO_v4/9x9_122.cnf
c p 1107
c cnf 5323
s SATISFIABLE
c process-time: 0.00 seconds
-----
c input_v4/product/cnf_ALO_v4/9x9_123.cnf
c p 1038
c cnf 4879
s SATISFIABLE
c process-time: 0.00 seconds
-----
c input_v4/product/cnf_ALO_v4/9x9_124.cnf
c p 1237
c cnf 6004
s SATISFIABLE
c process-time: 0.00 seconds
-----
c input_v4/product/cnf_ALO_v4/9x9_130.cnf
c p 1107
c cnf 5356
s SATISFIABLE
c process-time: 0.00 seconds
-----
c input_v4/product/cnf_ALO_v4/9x9_131.cnf
c p 1237
c cnf 5893
s SATISFIABLE
c process-time: 0.00 seconds
-----
c input_v4/product/cnf_ALO_v4/9x9_132.cnf
c p 1237
c cnf 5948
s SATISFIABLE
c process-time: 0.00 seconds
-----
c input_v4/product/cnf_ALO_v4/9x9_133.cnf
c p 1107
c cnf 5422
s SATISFIABLE
c process-time: 0.00 seconds
-----
c input_v4/product/cnf_ALO_v4/9x9_134.cnf
c p 969
c cnf 4590
s SATISFIABLE
c process-time: 0.00 seconds
-----
c input_v4/product/cnf_ALO_v4/9x9_135.cnf
c p 1038
c cnf 4980
s SATISFIABLE
c process-time: 0.00 seconds
-----
c input_v4/product/cnf_ALO_v4/9x9_136.cnf
c p 1038
c cnf 4995
s SATISFIABLE
c process-time: 0.00 seconds
-----
c input_v4/product/cnf_ALO_v4/9x9_137.cnf
c p 969
c cnf 4490
s SATISFIABLE
c process-time: 0.00 seconds
-----
c input_v4/product/cnf_ALO_v4/9x9_138.cnf
c p 1038
c cnf 5009
s SATISFIABLE
c process-time: 0.00 seconds
-----
c input_v4/product/cnf_ALO_v4/9x9_139.cnf
c p 1107
c cnf 5257
s SATISFIABLE
c process-time: 0.00 seconds
-----
c input_v4/product/cnf_ALO_v4/9x9_140.cnf
c p 1107
c cnf 5504
s SATISFIABLE
c process-time: 0.00 seconds
-----
c input_v4/product/cnf_ALO_v4/9x9_141.cnf
c p 969
c cnf 4502
s SATISFIABLE
c process-time: 0.00 seconds
-----
c input_v4/product/cnf_ALO_v4/9x9_142.cnf
c p 1237
c cnf 5967
s SATISFIABLE
c process-time: 0.00 seconds
-----
c input_v4/product/cnf_ALO_v4/9x9_143.cnf
c p 1038
c cnf 5024
s SATISFIABLE
c process-time: 0.00 seconds
-----
c input_v4/product/cnf_ALO_v4/9x9_144.cnf
c p 1107
c cnf 5372
s SATISFIABLE
c process-time: 0.00 seconds
-----
c input_v4/product/cnf_ALO_v4/9x9_145.cnf
c p 1038
c cnf 4937
s SATISFIABLE
c process-time: 0.00 seconds
-----
UNKNOWN
-----

